* #variable= 814 #constraint= 773 
-1 x23 +1 x1 >= 0 ;
-1 x23 +1 x12 >= 0 ;
+1 x23 -1 x1 -1 x12 >= -1 ;
+1 x12 = 0 ;
-1 x24 +1 x2 >= 0 ;
-1 x24 +1 x13 >= 0 ;
+1 x24 -1 x2 -1 x13 >= -1 ;
+1 x13 = 1 ;
-1 x25 +1 x3 >= 0 ;
-1 x25 +1 x14 >= 0 ;
+1 x25 -1 x3 -1 x14 >= -1 ;
+1 x14 = 0 ;
-1 x26 +1 x4 >= 0 ;
-1 x26 +1 x15 >= 0 ;
+1 x26 -1 x4 -1 x15 >= -1 ;
+1 x15 = 1 ;
-1 x27 +1 x5 >= 0 ;
-1 x27 +1 x16 >= 0 ;
+1 x27 -1 x5 -1 x16 >= -1 ;
+1 x16 = 0 ;
-1 x28 +1 x6 >= 0 ;
-1 x28 +1 x17 >= 0 ;
+1 x28 -1 x6 -1 x17 >= -1 ;
+1 x17 = 1 ;
-1 x29 +1 x7 >= 0 ;
-1 x29 +1 x18 >= 0 ;
+1 x29 -1 x7 -1 x18 >= -1 ;
+1 x18 = 0 ;
-1 x30 +1 x8 >= 0 ;
-1 x30 +1 x19 >= 0 ;
+1 x30 -1 x8 -1 x19 >= -1 ;
+1 x19 = 1 ;
-1 x31 +1 x9 >= 0 ;
-1 x31 +1 x20 >= 0 ;
+1 x31 -1 x9 -1 x20 >= -1 ;
+1 x20 = 0 ;
-1 x32 +1 x10 >= 0 ;
-1 x32 +1 x21 >= 0 ;
+1 x32 -1 x10 -1 x21 >= -1 ;
+1 x21 = 1 ;
-1 x33 +1 x11 >= 0 ;
-1 x33 +1 x22 >= 0 ;
+1 x33 -1 x11 -1 x22 >= -1 ;
+1 x22 = 0 ;
-1 x45 +1 x12 >= 0 ;
-1 x45 +1 x34 >= 0 ;
+1 x45 -1 x12 -1 x34 >= -1 ;
+1 x45 +2 x56 +4 x67 +8 x78 +16 x89 +32 x100 +64 x111 +128 x122 +256 x133 +512 x144 +1024 x155 +2 x46 +4 x57 +8 x68 +16 x79 +32 x90 +64 x101 +128 x112 +256 x123 +512 x134 +1024 x145 +2048 x156 +4 x47 +8 x58 +16 x69 +32 x80 +64 x91 +128 x102 +256 x113 +512 x124 +1024 x135 +2048 x146 +4096 x157 +8 x48 +16 x59 +32 x70 +64 x81 +128 x92 +256 x103 +512 x114 +1024 x125 +2048 x136 +4096 x147 +8192 x158 +16 x49 +32 x60 +64 x71 +128 x82 +256 x93 +512 x104 +1024 x115 +2048 x126 +4096 x137 +8192 x148 +16384 x159 +32 x50 +64 x61 +128 x72 +256 x83 +512 x94 +1024 x105 +2048 x116 +4096 x127 +8192 x138 +16384 x149 +32768 x160 +64 x51 +128 x62 +256 x73 +512 x84 +1024 x95 +2048 x106 +4096 x117 +8192 x128 +16384 x139 +32768 x150 +65536 x161 +128 x52 +256 x63 +512 x74 +1024 x85 +2048 x96 +4096 x107 +8192 x118 +16384 x129 +32768 x140 +65536 x151 +131072 x162 +256 x53 +512 x64 +1024 x75 +2048 x86 +4096 x97 +8192 x108 +16384 x119 +32768 x130 +65536 x141 +131072 x152 +262144 x163 +512 x54 +1024 x65 +2048 x76 +4096 x87 +8192 x98 +16384 x109 +32768 x120 +65536 x131 +131072 x142 +262144 x153 +524288 x164 +1024 x55 +2048 x66 +4096 x77 +8192 x88 +16384 x99 +32768 x110 +65536 x121 +131072 x132 +262144 x143 +524288 x154 +1048576 x165 -1 x771 -2 x772 -4 x773 -8 x774 -16 x775 -32 x776 -64 x777 -128 x778 -256 x779 -512 x780 -1024 x781 -2048 x782 -4096 x783 -8192 x784 -16384 x785 -32768 x786 -65536 x787 -131072 x788 -262144 x789 -524288 x790 -1048576 x791 -2097152 x792 = 0; 
-1 x408 +1 x23 >= 0 ;
-1 x408 +1 x34 >= 0 ;
+1 x408 -1 x23 -1 x34 >= -1 ;
+1 x408 +2 x419 +4 x430 +8 x441 +16 x452 +32 x463 +64 x474 +128 x485 +256 x496 +512 x507 +1024 x518 +2 x409 +4 x420 +8 x431 +16 x442 +32 x453 +64 x464 +128 x475 +256 x486 +512 x497 +1024 x508 +2048 x519 +4 x410 +8 x421 +16 x432 +32 x443 +64 x454 +128 x465 +256 x476 +512 x487 +1024 x498 +2048 x509 +4096 x520 +8 x411 +16 x422 +32 x433 +64 x444 +128 x455 +256 x466 +512 x477 +1024 x488 +2048 x499 +4096 x510 +8192 x521 +16 x412 +32 x423 +64 x434 +128 x445 +256 x456 +512 x467 +1024 x478 +2048 x489 +4096 x500 +8192 x511 +16384 x522 +32 x413 +64 x424 +128 x435 +256 x446 +512 x457 +1024 x468 +2048 x479 +4096 x490 +8192 x501 +16384 x512 +32768 x523 +64 x414 +128 x425 +256 x436 +512 x447 +1024 x458 +2048 x469 +4096 x480 +8192 x491 +16384 x502 +32768 x513 +65536 x524 +128 x415 +256 x426 +512 x437 +1024 x448 +2048 x459 +4096 x470 +8192 x481 +16384 x492 +32768 x503 +65536 x514 +131072 x525 +256 x416 +512 x427 +1024 x438 +2048 x449 +4096 x460 +8192 x471 +16384 x482 +32768 x493 +65536 x504 +131072 x515 +262144 x526 +512 x417 +1024 x428 +2048 x439 +4096 x450 +8192 x461 +16384 x472 +32768 x483 +65536 x494 +131072 x505 +262144 x516 +524288 x527 +1024 x418 +2048 x429 +4096 x440 +8192 x451 +16384 x462 +32768 x473 +65536 x484 +131072 x495 +262144 x506 +524288 x517 +1048576 x528 -1 x793 -2 x794 -4 x795 -8 x796 -16 x797 -32 x798 -64 x799 -128 x800 -256 x801 -512 x802 -1024 x803 -2048 x804 -4096 x805 -8192 x806 -16384 x807 -32768 x808 -65536 x809 -131072 x810 -262144 x811 -524288 x812 -1048576 x813 -2097152 x814 = 0; 
+1 x793 -1 x771 +2 x794 -2 x772 +4 x795 -4 x773 +8 x796 -8 x774 +16 x797 -16 x775 +32 x798 -32 x776 +64 x799 -64 x777 +128 x800 -128 x778 +256 x801 -256 x779 +512 x802 -512 x780 +1024 x803 -1024 x781 +2048 x804 -2048 x782 +4096 x805 -4096 x783 +8192 x806 -8192 x784 +16384 x807 -16384 x785 +32768 x808 -32768 x786 +65536 x809 -65536 x787 +131072 x810 -131072 x788 +262144 x811 -262144 x789 +524288 x812 -524288 x790 +1048576 x813 -1048576 x791 +2097152 x814 -2097152 x792 >= 1 ;
-1 x56 +1 x13 >= 0 ;
-1 x56 +1 x34 >= 0 ;
+1 x56 -1 x13 -1 x34 >= -1 ;
-1 x46 +1 x12 >= 0 ;
-1 x46 +1 x35 >= 0 ;
+1 x46 -1 x12 -1 x35 >= -1 ;
-1 x419 +1 x24 >= 0 ;
-1 x419 +1 x34 >= 0 ;
+1 x419 -1 x24 -1 x34 >= -1 ;
-1 x409 +1 x23 >= 0 ;
-1 x409 +1 x35 >= 0 ;
+1 x409 -1 x23 -1 x35 >= -1 ;
-1 x67 +1 x14 >= 0 ;
-1 x67 +1 x34 >= 0 ;
+1 x67 -1 x14 -1 x34 >= -1 ;
-1 x57 +1 x13 >= 0 ;
-1 x57 +1 x35 >= 0 ;
+1 x57 -1 x13 -1 x35 >= -1 ;
-1 x47 +1 x12 >= 0 ;
-1 x47 +1 x36 >= 0 ;
+1 x47 -1 x12 -1 x36 >= -1 ;
-1 x430 +1 x25 >= 0 ;
-1 x430 +1 x34 >= 0 ;
+1 x430 -1 x25 -1 x34 >= -1 ;
-1 x420 +1 x24 >= 0 ;
-1 x420 +1 x35 >= 0 ;
+1 x420 -1 x24 -1 x35 >= -1 ;
-1 x410 +1 x23 >= 0 ;
-1 x410 +1 x36 >= 0 ;
+1 x410 -1 x23 -1 x36 >= -1 ;
-1 x78 +1 x15 >= 0 ;
-1 x78 +1 x34 >= 0 ;
+1 x78 -1 x15 -1 x34 >= -1 ;
-1 x68 +1 x14 >= 0 ;
-1 x68 +1 x35 >= 0 ;
+1 x68 -1 x14 -1 x35 >= -1 ;
-1 x58 +1 x13 >= 0 ;
-1 x58 +1 x36 >= 0 ;
+1 x58 -1 x13 -1 x36 >= -1 ;
-1 x48 +1 x12 >= 0 ;
-1 x48 +1 x37 >= 0 ;
+1 x48 -1 x12 -1 x37 >= -1 ;
-1 x441 +1 x26 >= 0 ;
-1 x441 +1 x34 >= 0 ;
+1 x441 -1 x26 -1 x34 >= -1 ;
-1 x431 +1 x25 >= 0 ;
-1 x431 +1 x35 >= 0 ;
+1 x431 -1 x25 -1 x35 >= -1 ;
-1 x421 +1 x24 >= 0 ;
-1 x421 +1 x36 >= 0 ;
+1 x421 -1 x24 -1 x36 >= -1 ;
-1 x411 +1 x23 >= 0 ;
-1 x411 +1 x37 >= 0 ;
+1 x411 -1 x23 -1 x37 >= -1 ;
-1 x89 +1 x16 >= 0 ;
-1 x89 +1 x34 >= 0 ;
+1 x89 -1 x16 -1 x34 >= -1 ;
-1 x79 +1 x15 >= 0 ;
-1 x79 +1 x35 >= 0 ;
+1 x79 -1 x15 -1 x35 >= -1 ;
-1 x69 +1 x14 >= 0 ;
-1 x69 +1 x36 >= 0 ;
+1 x69 -1 x14 -1 x36 >= -1 ;
-1 x59 +1 x13 >= 0 ;
-1 x59 +1 x37 >= 0 ;
+1 x59 -1 x13 -1 x37 >= -1 ;
-1 x49 +1 x12 >= 0 ;
-1 x49 +1 x38 >= 0 ;
+1 x49 -1 x12 -1 x38 >= -1 ;
-1 x452 +1 x27 >= 0 ;
-1 x452 +1 x34 >= 0 ;
+1 x452 -1 x27 -1 x34 >= -1 ;
-1 x442 +1 x26 >= 0 ;
-1 x442 +1 x35 >= 0 ;
+1 x442 -1 x26 -1 x35 >= -1 ;
-1 x432 +1 x25 >= 0 ;
-1 x432 +1 x36 >= 0 ;
+1 x432 -1 x25 -1 x36 >= -1 ;
-1 x422 +1 x24 >= 0 ;
-1 x422 +1 x37 >= 0 ;
+1 x422 -1 x24 -1 x37 >= -1 ;
-1 x412 +1 x23 >= 0 ;
-1 x412 +1 x38 >= 0 ;
+1 x412 -1 x23 -1 x38 >= -1 ;
-1 x100 +1 x17 >= 0 ;
-1 x100 +1 x34 >= 0 ;
+1 x100 -1 x17 -1 x34 >= -1 ;
-1 x90 +1 x16 >= 0 ;
-1 x90 +1 x35 >= 0 ;
+1 x90 -1 x16 -1 x35 >= -1 ;
-1 x80 +1 x15 >= 0 ;
-1 x80 +1 x36 >= 0 ;
+1 x80 -1 x15 -1 x36 >= -1 ;
-1 x70 +1 x14 >= 0 ;
-1 x70 +1 x37 >= 0 ;
+1 x70 -1 x14 -1 x37 >= -1 ;
-1 x60 +1 x13 >= 0 ;
-1 x60 +1 x38 >= 0 ;
+1 x60 -1 x13 -1 x38 >= -1 ;
-1 x50 +1 x12 >= 0 ;
-1 x50 +1 x39 >= 0 ;
+1 x50 -1 x12 -1 x39 >= -1 ;
-1 x463 +1 x28 >= 0 ;
-1 x463 +1 x34 >= 0 ;
+1 x463 -1 x28 -1 x34 >= -1 ;
-1 x453 +1 x27 >= 0 ;
-1 x453 +1 x35 >= 0 ;
+1 x453 -1 x27 -1 x35 >= -1 ;
-1 x443 +1 x26 >= 0 ;
-1 x443 +1 x36 >= 0 ;
+1 x443 -1 x26 -1 x36 >= -1 ;
-1 x433 +1 x25 >= 0 ;
-1 x433 +1 x37 >= 0 ;
+1 x433 -1 x25 -1 x37 >= -1 ;
-1 x423 +1 x24 >= 0 ;
-1 x423 +1 x38 >= 0 ;
+1 x423 -1 x24 -1 x38 >= -1 ;
-1 x413 +1 x23 >= 0 ;
-1 x413 +1 x39 >= 0 ;
+1 x413 -1 x23 -1 x39 >= -1 ;
-1 x111 +1 x18 >= 0 ;
-1 x111 +1 x34 >= 0 ;
+1 x111 -1 x18 -1 x34 >= -1 ;
-1 x101 +1 x17 >= 0 ;
-1 x101 +1 x35 >= 0 ;
+1 x101 -1 x17 -1 x35 >= -1 ;
-1 x91 +1 x16 >= 0 ;
-1 x91 +1 x36 >= 0 ;
+1 x91 -1 x16 -1 x36 >= -1 ;
-1 x81 +1 x15 >= 0 ;
-1 x81 +1 x37 >= 0 ;
+1 x81 -1 x15 -1 x37 >= -1 ;
-1 x71 +1 x14 >= 0 ;
-1 x71 +1 x38 >= 0 ;
+1 x71 -1 x14 -1 x38 >= -1 ;
-1 x61 +1 x13 >= 0 ;
-1 x61 +1 x39 >= 0 ;
+1 x61 -1 x13 -1 x39 >= -1 ;
-1 x51 +1 x12 >= 0 ;
-1 x51 +1 x40 >= 0 ;
+1 x51 -1 x12 -1 x40 >= -1 ;
-1 x474 +1 x29 >= 0 ;
-1 x474 +1 x34 >= 0 ;
+1 x474 -1 x29 -1 x34 >= -1 ;
-1 x464 +1 x28 >= 0 ;
-1 x464 +1 x35 >= 0 ;
+1 x464 -1 x28 -1 x35 >= -1 ;
-1 x454 +1 x27 >= 0 ;
-1 x454 +1 x36 >= 0 ;
+1 x454 -1 x27 -1 x36 >= -1 ;
-1 x444 +1 x26 >= 0 ;
-1 x444 +1 x37 >= 0 ;
+1 x444 -1 x26 -1 x37 >= -1 ;
-1 x434 +1 x25 >= 0 ;
-1 x434 +1 x38 >= 0 ;
+1 x434 -1 x25 -1 x38 >= -1 ;
-1 x424 +1 x24 >= 0 ;
-1 x424 +1 x39 >= 0 ;
+1 x424 -1 x24 -1 x39 >= -1 ;
-1 x414 +1 x23 >= 0 ;
-1 x414 +1 x40 >= 0 ;
+1 x414 -1 x23 -1 x40 >= -1 ;
-1 x122 +1 x19 >= 0 ;
-1 x122 +1 x34 >= 0 ;
+1 x122 -1 x19 -1 x34 >= -1 ;
-1 x112 +1 x18 >= 0 ;
-1 x112 +1 x35 >= 0 ;
+1 x112 -1 x18 -1 x35 >= -1 ;
-1 x102 +1 x17 >= 0 ;
-1 x102 +1 x36 >= 0 ;
+1 x102 -1 x17 -1 x36 >= -1 ;
-1 x92 +1 x16 >= 0 ;
-1 x92 +1 x37 >= 0 ;
+1 x92 -1 x16 -1 x37 >= -1 ;
-1 x82 +1 x15 >= 0 ;
-1 x82 +1 x38 >= 0 ;
+1 x82 -1 x15 -1 x38 >= -1 ;
-1 x72 +1 x14 >= 0 ;
-1 x72 +1 x39 >= 0 ;
+1 x72 -1 x14 -1 x39 >= -1 ;
-1 x62 +1 x13 >= 0 ;
-1 x62 +1 x40 >= 0 ;
+1 x62 -1 x13 -1 x40 >= -1 ;
-1 x52 +1 x12 >= 0 ;
-1 x52 +1 x41 >= 0 ;
+1 x52 -1 x12 -1 x41 >= -1 ;
-1 x485 +1 x30 >= 0 ;
-1 x485 +1 x34 >= 0 ;
+1 x485 -1 x30 -1 x34 >= -1 ;
-1 x475 +1 x29 >= 0 ;
-1 x475 +1 x35 >= 0 ;
+1 x475 -1 x29 -1 x35 >= -1 ;
-1 x465 +1 x28 >= 0 ;
-1 x465 +1 x36 >= 0 ;
+1 x465 -1 x28 -1 x36 >= -1 ;
-1 x455 +1 x27 >= 0 ;
-1 x455 +1 x37 >= 0 ;
+1 x455 -1 x27 -1 x37 >= -1 ;
-1 x445 +1 x26 >= 0 ;
-1 x445 +1 x38 >= 0 ;
+1 x445 -1 x26 -1 x38 >= -1 ;
-1 x435 +1 x25 >= 0 ;
-1 x435 +1 x39 >= 0 ;
+1 x435 -1 x25 -1 x39 >= -1 ;
-1 x425 +1 x24 >= 0 ;
-1 x425 +1 x40 >= 0 ;
+1 x425 -1 x24 -1 x40 >= -1 ;
-1 x415 +1 x23 >= 0 ;
-1 x415 +1 x41 >= 0 ;
+1 x415 -1 x23 -1 x41 >= -1 ;
-1 x133 +1 x20 >= 0 ;
-1 x133 +1 x34 >= 0 ;
+1 x133 -1 x20 -1 x34 >= -1 ;
-1 x123 +1 x19 >= 0 ;
-1 x123 +1 x35 >= 0 ;
+1 x123 -1 x19 -1 x35 >= -1 ;
-1 x113 +1 x18 >= 0 ;
-1 x113 +1 x36 >= 0 ;
+1 x113 -1 x18 -1 x36 >= -1 ;
-1 x103 +1 x17 >= 0 ;
-1 x103 +1 x37 >= 0 ;
+1 x103 -1 x17 -1 x37 >= -1 ;
-1 x93 +1 x16 >= 0 ;
-1 x93 +1 x38 >= 0 ;
+1 x93 -1 x16 -1 x38 >= -1 ;
-1 x83 +1 x15 >= 0 ;
-1 x83 +1 x39 >= 0 ;
+1 x83 -1 x15 -1 x39 >= -1 ;
-1 x73 +1 x14 >= 0 ;
-1 x73 +1 x40 >= 0 ;
+1 x73 -1 x14 -1 x40 >= -1 ;
-1 x63 +1 x13 >= 0 ;
-1 x63 +1 x41 >= 0 ;
+1 x63 -1 x13 -1 x41 >= -1 ;
-1 x53 +1 x12 >= 0 ;
-1 x53 +1 x42 >= 0 ;
+1 x53 -1 x12 -1 x42 >= -1 ;
-1 x496 +1 x31 >= 0 ;
-1 x496 +1 x34 >= 0 ;
+1 x496 -1 x31 -1 x34 >= -1 ;
-1 x486 +1 x30 >= 0 ;
-1 x486 +1 x35 >= 0 ;
+1 x486 -1 x30 -1 x35 >= -1 ;
-1 x476 +1 x29 >= 0 ;
-1 x476 +1 x36 >= 0 ;
+1 x476 -1 x29 -1 x36 >= -1 ;
-1 x466 +1 x28 >= 0 ;
-1 x466 +1 x37 >= 0 ;
+1 x466 -1 x28 -1 x37 >= -1 ;
-1 x456 +1 x27 >= 0 ;
-1 x456 +1 x38 >= 0 ;
+1 x456 -1 x27 -1 x38 >= -1 ;
-1 x446 +1 x26 >= 0 ;
-1 x446 +1 x39 >= 0 ;
+1 x446 -1 x26 -1 x39 >= -1 ;
-1 x436 +1 x25 >= 0 ;
-1 x436 +1 x40 >= 0 ;
+1 x436 -1 x25 -1 x40 >= -1 ;
-1 x426 +1 x24 >= 0 ;
-1 x426 +1 x41 >= 0 ;
+1 x426 -1 x24 -1 x41 >= -1 ;
-1 x416 +1 x23 >= 0 ;
-1 x416 +1 x42 >= 0 ;
+1 x416 -1 x23 -1 x42 >= -1 ;
-1 x144 +1 x21 >= 0 ;
-1 x144 +1 x34 >= 0 ;
+1 x144 -1 x21 -1 x34 >= -1 ;
-1 x134 +1 x20 >= 0 ;
-1 x134 +1 x35 >= 0 ;
+1 x134 -1 x20 -1 x35 >= -1 ;
-1 x124 +1 x19 >= 0 ;
-1 x124 +1 x36 >= 0 ;
+1 x124 -1 x19 -1 x36 >= -1 ;
-1 x114 +1 x18 >= 0 ;
-1 x114 +1 x37 >= 0 ;
+1 x114 -1 x18 -1 x37 >= -1 ;
-1 x104 +1 x17 >= 0 ;
-1 x104 +1 x38 >= 0 ;
+1 x104 -1 x17 -1 x38 >= -1 ;
-1 x94 +1 x16 >= 0 ;
-1 x94 +1 x39 >= 0 ;
+1 x94 -1 x16 -1 x39 >= -1 ;
-1 x84 +1 x15 >= 0 ;
-1 x84 +1 x40 >= 0 ;
+1 x84 -1 x15 -1 x40 >= -1 ;
-1 x74 +1 x14 >= 0 ;
-1 x74 +1 x41 >= 0 ;
+1 x74 -1 x14 -1 x41 >= -1 ;
-1 x64 +1 x13 >= 0 ;
-1 x64 +1 x42 >= 0 ;
+1 x64 -1 x13 -1 x42 >= -1 ;
-1 x54 +1 x12 >= 0 ;
-1 x54 +1 x43 >= 0 ;
+1 x54 -1 x12 -1 x43 >= -1 ;
-1 x507 +1 x32 >= 0 ;
-1 x507 +1 x34 >= 0 ;
+1 x507 -1 x32 -1 x34 >= -1 ;
-1 x497 +1 x31 >= 0 ;
-1 x497 +1 x35 >= 0 ;
+1 x497 -1 x31 -1 x35 >= -1 ;
-1 x487 +1 x30 >= 0 ;
-1 x487 +1 x36 >= 0 ;
+1 x487 -1 x30 -1 x36 >= -1 ;
-1 x477 +1 x29 >= 0 ;
-1 x477 +1 x37 >= 0 ;
+1 x477 -1 x29 -1 x37 >= -1 ;
-1 x467 +1 x28 >= 0 ;
-1 x467 +1 x38 >= 0 ;
+1 x467 -1 x28 -1 x38 >= -1 ;
-1 x457 +1 x27 >= 0 ;
-1 x457 +1 x39 >= 0 ;
+1 x457 -1 x27 -1 x39 >= -1 ;
-1 x447 +1 x26 >= 0 ;
-1 x447 +1 x40 >= 0 ;
+1 x447 -1 x26 -1 x40 >= -1 ;
-1 x437 +1 x25 >= 0 ;
-1 x437 +1 x41 >= 0 ;
+1 x437 -1 x25 -1 x41 >= -1 ;
-1 x427 +1 x24 >= 0 ;
-1 x427 +1 x42 >= 0 ;
+1 x427 -1 x24 -1 x42 >= -1 ;
-1 x417 +1 x23 >= 0 ;
-1 x417 +1 x43 >= 0 ;
+1 x417 -1 x23 -1 x43 >= -1 ;
-1 x155 +1 x22 >= 0 ;
-1 x155 +1 x34 >= 0 ;
+1 x155 -1 x22 -1 x34 >= -1 ;
-1 x145 +1 x21 >= 0 ;
-1 x145 +1 x35 >= 0 ;
+1 x145 -1 x21 -1 x35 >= -1 ;
-1 x135 +1 x20 >= 0 ;
-1 x135 +1 x36 >= 0 ;
+1 x135 -1 x20 -1 x36 >= -1 ;
-1 x125 +1 x19 >= 0 ;
-1 x125 +1 x37 >= 0 ;
+1 x125 -1 x19 -1 x37 >= -1 ;
-1 x115 +1 x18 >= 0 ;
-1 x115 +1 x38 >= 0 ;
+1 x115 -1 x18 -1 x38 >= -1 ;
-1 x105 +1 x17 >= 0 ;
-1 x105 +1 x39 >= 0 ;
+1 x105 -1 x17 -1 x39 >= -1 ;
-1 x95 +1 x16 >= 0 ;
-1 x95 +1 x40 >= 0 ;
+1 x95 -1 x16 -1 x40 >= -1 ;
-1 x85 +1 x15 >= 0 ;
-1 x85 +1 x41 >= 0 ;
+1 x85 -1 x15 -1 x41 >= -1 ;
-1 x75 +1 x14 >= 0 ;
-1 x75 +1 x42 >= 0 ;
+1 x75 -1 x14 -1 x42 >= -1 ;
-1 x65 +1 x13 >= 0 ;
-1 x65 +1 x43 >= 0 ;
+1 x65 -1 x13 -1 x43 >= -1 ;
-1 x55 +1 x12 >= 0 ;
-1 x55 +1 x44 >= 0 ;
+1 x55 -1 x12 -1 x44 >= -1 ;
-1 x518 +1 x33 >= 0 ;
-1 x518 +1 x34 >= 0 ;
+1 x518 -1 x33 -1 x34 >= -1 ;
-1 x508 +1 x32 >= 0 ;
-1 x508 +1 x35 >= 0 ;
+1 x508 -1 x32 -1 x35 >= -1 ;
-1 x498 +1 x31 >= 0 ;
-1 x498 +1 x36 >= 0 ;
+1 x498 -1 x31 -1 x36 >= -1 ;
-1 x488 +1 x30 >= 0 ;
-1 x488 +1 x37 >= 0 ;
+1 x488 -1 x30 -1 x37 >= -1 ;
-1 x478 +1 x29 >= 0 ;
-1 x478 +1 x38 >= 0 ;
+1 x478 -1 x29 -1 x38 >= -1 ;
-1 x468 +1 x28 >= 0 ;
-1 x468 +1 x39 >= 0 ;
+1 x468 -1 x28 -1 x39 >= -1 ;
-1 x458 +1 x27 >= 0 ;
-1 x458 +1 x40 >= 0 ;
+1 x458 -1 x27 -1 x40 >= -1 ;
-1 x448 +1 x26 >= 0 ;
-1 x448 +1 x41 >= 0 ;
+1 x448 -1 x26 -1 x41 >= -1 ;
-1 x438 +1 x25 >= 0 ;
-1 x438 +1 x42 >= 0 ;
+1 x438 -1 x25 -1 x42 >= -1 ;
-1 x428 +1 x24 >= 0 ;
-1 x428 +1 x43 >= 0 ;
+1 x428 -1 x24 -1 x43 >= -1 ;
-1 x418 +1 x23 >= 0 ;
-1 x418 +1 x44 >= 0 ;
+1 x418 -1 x23 -1 x44 >= -1 ;
-1 x156 +1 x22 >= 0 ;
-1 x156 +1 x35 >= 0 ;
+1 x156 -1 x22 -1 x35 >= -1 ;
-1 x146 +1 x21 >= 0 ;
-1 x146 +1 x36 >= 0 ;
+1 x146 -1 x21 -1 x36 >= -1 ;
-1 x136 +1 x20 >= 0 ;
-1 x136 +1 x37 >= 0 ;
+1 x136 -1 x20 -1 x37 >= -1 ;
-1 x126 +1 x19 >= 0 ;
-1 x126 +1 x38 >= 0 ;
+1 x126 -1 x19 -1 x38 >= -1 ;
-1 x116 +1 x18 >= 0 ;
-1 x116 +1 x39 >= 0 ;
+1 x116 -1 x18 -1 x39 >= -1 ;
-1 x106 +1 x17 >= 0 ;
-1 x106 +1 x40 >= 0 ;
+1 x106 -1 x17 -1 x40 >= -1 ;
-1 x96 +1 x16 >= 0 ;
-1 x96 +1 x41 >= 0 ;
+1 x96 -1 x16 -1 x41 >= -1 ;
-1 x86 +1 x15 >= 0 ;
-1 x86 +1 x42 >= 0 ;
+1 x86 -1 x15 -1 x42 >= -1 ;
-1 x76 +1 x14 >= 0 ;
-1 x76 +1 x43 >= 0 ;
+1 x76 -1 x14 -1 x43 >= -1 ;
-1 x66 +1 x13 >= 0 ;
-1 x66 +1 x44 >= 0 ;
+1 x66 -1 x13 -1 x44 >= -1 ;
-1 x519 +1 x33 >= 0 ;
-1 x519 +1 x35 >= 0 ;
+1 x519 -1 x33 -1 x35 >= -1 ;
-1 x509 +1 x32 >= 0 ;
-1 x509 +1 x36 >= 0 ;
+1 x509 -1 x32 -1 x36 >= -1 ;
-1 x499 +1 x31 >= 0 ;
-1 x499 +1 x37 >= 0 ;
+1 x499 -1 x31 -1 x37 >= -1 ;
-1 x489 +1 x30 >= 0 ;
-1 x489 +1 x38 >= 0 ;
+1 x489 -1 x30 -1 x38 >= -1 ;
-1 x479 +1 x29 >= 0 ;
-1 x479 +1 x39 >= 0 ;
+1 x479 -1 x29 -1 x39 >= -1 ;
-1 x469 +1 x28 >= 0 ;
-1 x469 +1 x40 >= 0 ;
+1 x469 -1 x28 -1 x40 >= -1 ;
-1 x459 +1 x27 >= 0 ;
-1 x459 +1 x41 >= 0 ;
+1 x459 -1 x27 -1 x41 >= -1 ;
-1 x449 +1 x26 >= 0 ;
-1 x449 +1 x42 >= 0 ;
+1 x449 -1 x26 -1 x42 >= -1 ;
-1 x439 +1 x25 >= 0 ;
-1 x439 +1 x43 >= 0 ;
+1 x439 -1 x25 -1 x43 >= -1 ;
-1 x429 +1 x24 >= 0 ;
-1 x429 +1 x44 >= 0 ;
+1 x429 -1 x24 -1 x44 >= -1 ;
-1 x157 +1 x22 >= 0 ;
-1 x157 +1 x36 >= 0 ;
+1 x157 -1 x22 -1 x36 >= -1 ;
-1 x147 +1 x21 >= 0 ;
-1 x147 +1 x37 >= 0 ;
+1 x147 -1 x21 -1 x37 >= -1 ;
-1 x137 +1 x20 >= 0 ;
-1 x137 +1 x38 >= 0 ;
+1 x137 -1 x20 -1 x38 >= -1 ;
-1 x127 +1 x19 >= 0 ;
-1 x127 +1 x39 >= 0 ;
+1 x127 -1 x19 -1 x39 >= -1 ;
-1 x117 +1 x18 >= 0 ;
-1 x117 +1 x40 >= 0 ;
+1 x117 -1 x18 -1 x40 >= -1 ;
-1 x107 +1 x17 >= 0 ;
-1 x107 +1 x41 >= 0 ;
+1 x107 -1 x17 -1 x41 >= -1 ;
-1 x97 +1 x16 >= 0 ;
-1 x97 +1 x42 >= 0 ;
+1 x97 -1 x16 -1 x42 >= -1 ;
-1 x87 +1 x15 >= 0 ;
-1 x87 +1 x43 >= 0 ;
+1 x87 -1 x15 -1 x43 >= -1 ;
-1 x77 +1 x14 >= 0 ;
-1 x77 +1 x44 >= 0 ;
+1 x77 -1 x14 -1 x44 >= -1 ;
-1 x520 +1 x33 >= 0 ;
-1 x520 +1 x36 >= 0 ;
+1 x520 -1 x33 -1 x36 >= -1 ;
-1 x510 +1 x32 >= 0 ;
-1 x510 +1 x37 >= 0 ;
+1 x510 -1 x32 -1 x37 >= -1 ;
-1 x500 +1 x31 >= 0 ;
-1 x500 +1 x38 >= 0 ;
+1 x500 -1 x31 -1 x38 >= -1 ;
-1 x490 +1 x30 >= 0 ;
-1 x490 +1 x39 >= 0 ;
+1 x490 -1 x30 -1 x39 >= -1 ;
-1 x480 +1 x29 >= 0 ;
-1 x480 +1 x40 >= 0 ;
+1 x480 -1 x29 -1 x40 >= -1 ;
-1 x470 +1 x28 >= 0 ;
-1 x470 +1 x41 >= 0 ;
+1 x470 -1 x28 -1 x41 >= -1 ;
-1 x460 +1 x27 >= 0 ;
-1 x460 +1 x42 >= 0 ;
+1 x460 -1 x27 -1 x42 >= -1 ;
-1 x450 +1 x26 >= 0 ;
-1 x450 +1 x43 >= 0 ;
+1 x450 -1 x26 -1 x43 >= -1 ;
-1 x440 +1 x25 >= 0 ;
-1 x440 +1 x44 >= 0 ;
+1 x440 -1 x25 -1 x44 >= -1 ;
-1 x158 +1 x22 >= 0 ;
-1 x158 +1 x37 >= 0 ;
+1 x158 -1 x22 -1 x37 >= -1 ;
-1 x148 +1 x21 >= 0 ;
-1 x148 +1 x38 >= 0 ;
+1 x148 -1 x21 -1 x38 >= -1 ;
-1 x138 +1 x20 >= 0 ;
-1 x138 +1 x39 >= 0 ;
+1 x138 -1 x20 -1 x39 >= -1 ;
-1 x128 +1 x19 >= 0 ;
-1 x128 +1 x40 >= 0 ;
+1 x128 -1 x19 -1 x40 >= -1 ;
-1 x118 +1 x18 >= 0 ;
-1 x118 +1 x41 >= 0 ;
+1 x118 -1 x18 -1 x41 >= -1 ;
-1 x108 +1 x17 >= 0 ;
-1 x108 +1 x42 >= 0 ;
+1 x108 -1 x17 -1 x42 >= -1 ;
-1 x98 +1 x16 >= 0 ;
-1 x98 +1 x43 >= 0 ;
+1 x98 -1 x16 -1 x43 >= -1 ;
-1 x88 +1 x15 >= 0 ;
-1 x88 +1 x44 >= 0 ;
+1 x88 -1 x15 -1 x44 >= -1 ;
-1 x521 +1 x33 >= 0 ;
-1 x521 +1 x37 >= 0 ;
+1 x521 -1 x33 -1 x37 >= -1 ;
-1 x511 +1 x32 >= 0 ;
-1 x511 +1 x38 >= 0 ;
+1 x511 -1 x32 -1 x38 >= -1 ;
-1 x501 +1 x31 >= 0 ;
-1 x501 +1 x39 >= 0 ;
+1 x501 -1 x31 -1 x39 >= -1 ;
-1 x491 +1 x30 >= 0 ;
-1 x491 +1 x40 >= 0 ;
+1 x491 -1 x30 -1 x40 >= -1 ;
-1 x481 +1 x29 >= 0 ;
-1 x481 +1 x41 >= 0 ;
+1 x481 -1 x29 -1 x41 >= -1 ;
-1 x471 +1 x28 >= 0 ;
-1 x471 +1 x42 >= 0 ;
+1 x471 -1 x28 -1 x42 >= -1 ;
-1 x461 +1 x27 >= 0 ;
-1 x461 +1 x43 >= 0 ;
+1 x461 -1 x27 -1 x43 >= -1 ;
-1 x451 +1 x26 >= 0 ;
-1 x451 +1 x44 >= 0 ;
+1 x451 -1 x26 -1 x44 >= -1 ;
-1 x159 +1 x22 >= 0 ;
-1 x159 +1 x38 >= 0 ;
+1 x159 -1 x22 -1 x38 >= -1 ;
-1 x149 +1 x21 >= 0 ;
-1 x149 +1 x39 >= 0 ;
+1 x149 -1 x21 -1 x39 >= -1 ;
-1 x139 +1 x20 >= 0 ;
-1 x139 +1 x40 >= 0 ;
+1 x139 -1 x20 -1 x40 >= -1 ;
-1 x129 +1 x19 >= 0 ;
-1 x129 +1 x41 >= 0 ;
+1 x129 -1 x19 -1 x41 >= -1 ;
-1 x119 +1 x18 >= 0 ;
-1 x119 +1 x42 >= 0 ;
+1 x119 -1 x18 -1 x42 >= -1 ;
-1 x109 +1 x17 >= 0 ;
-1 x109 +1 x43 >= 0 ;
+1 x109 -1 x17 -1 x43 >= -1 ;
-1 x99 +1 x16 >= 0 ;
-1 x99 +1 x44 >= 0 ;
+1 x99 -1 x16 -1 x44 >= -1 ;
-1 x522 +1 x33 >= 0 ;
-1 x522 +1 x38 >= 0 ;
+1 x522 -1 x33 -1 x38 >= -1 ;
-1 x512 +1 x32 >= 0 ;
-1 x512 +1 x39 >= 0 ;
+1 x512 -1 x32 -1 x39 >= -1 ;
-1 x502 +1 x31 >= 0 ;
-1 x502 +1 x40 >= 0 ;
+1 x502 -1 x31 -1 x40 >= -1 ;
-1 x492 +1 x30 >= 0 ;
-1 x492 +1 x41 >= 0 ;
+1 x492 -1 x30 -1 x41 >= -1 ;
-1 x482 +1 x29 >= 0 ;
-1 x482 +1 x42 >= 0 ;
+1 x482 -1 x29 -1 x42 >= -1 ;
-1 x472 +1 x28 >= 0 ;
-1 x472 +1 x43 >= 0 ;
+1 x472 -1 x28 -1 x43 >= -1 ;
-1 x462 +1 x27 >= 0 ;
-1 x462 +1 x44 >= 0 ;
+1 x462 -1 x27 -1 x44 >= -1 ;
-1 x160 +1 x22 >= 0 ;
-1 x160 +1 x39 >= 0 ;
+1 x160 -1 x22 -1 x39 >= -1 ;
-1 x150 +1 x21 >= 0 ;
-1 x150 +1 x40 >= 0 ;
+1 x150 -1 x21 -1 x40 >= -1 ;
-1 x140 +1 x20 >= 0 ;
-1 x140 +1 x41 >= 0 ;
+1 x140 -1 x20 -1 x41 >= -1 ;
-1 x130 +1 x19 >= 0 ;
-1 x130 +1 x42 >= 0 ;
+1 x130 -1 x19 -1 x42 >= -1 ;
-1 x120 +1 x18 >= 0 ;
-1 x120 +1 x43 >= 0 ;
+1 x120 -1 x18 -1 x43 >= -1 ;
-1 x110 +1 x17 >= 0 ;
-1 x110 +1 x44 >= 0 ;
+1 x110 -1 x17 -1 x44 >= -1 ;
-1 x523 +1 x33 >= 0 ;
-1 x523 +1 x39 >= 0 ;
+1 x523 -1 x33 -1 x39 >= -1 ;
-1 x513 +1 x32 >= 0 ;
-1 x513 +1 x40 >= 0 ;
+1 x513 -1 x32 -1 x40 >= -1 ;
-1 x503 +1 x31 >= 0 ;
-1 x503 +1 x41 >= 0 ;
+1 x503 -1 x31 -1 x41 >= -1 ;
-1 x493 +1 x30 >= 0 ;
-1 x493 +1 x42 >= 0 ;
+1 x493 -1 x30 -1 x42 >= -1 ;
-1 x483 +1 x29 >= 0 ;
-1 x483 +1 x43 >= 0 ;
+1 x483 -1 x29 -1 x43 >= -1 ;
-1 x473 +1 x28 >= 0 ;
-1 x473 +1 x44 >= 0 ;
+1 x473 -1 x28 -1 x44 >= -1 ;
-1 x161 +1 x22 >= 0 ;
-1 x161 +1 x40 >= 0 ;
+1 x161 -1 x22 -1 x40 >= -1 ;
-1 x151 +1 x21 >= 0 ;
-1 x151 +1 x41 >= 0 ;
+1 x151 -1 x21 -1 x41 >= -1 ;
-1 x141 +1 x20 >= 0 ;
-1 x141 +1 x42 >= 0 ;
+1 x141 -1 x20 -1 x42 >= -1 ;
-1 x131 +1 x19 >= 0 ;
-1 x131 +1 x43 >= 0 ;
+1 x131 -1 x19 -1 x43 >= -1 ;
-1 x121 +1 x18 >= 0 ;
-1 x121 +1 x44 >= 0 ;
+1 x121 -1 x18 -1 x44 >= -1 ;
-1 x524 +1 x33 >= 0 ;
-1 x524 +1 x40 >= 0 ;
+1 x524 -1 x33 -1 x40 >= -1 ;
-1 x514 +1 x32 >= 0 ;
-1 x514 +1 x41 >= 0 ;
+1 x514 -1 x32 -1 x41 >= -1 ;
-1 x504 +1 x31 >= 0 ;
-1 x504 +1 x42 >= 0 ;
+1 x504 -1 x31 -1 x42 >= -1 ;
-1 x494 +1 x30 >= 0 ;
-1 x494 +1 x43 >= 0 ;
+1 x494 -1 x30 -1 x43 >= -1 ;
-1 x484 +1 x29 >= 0 ;
-1 x484 +1 x44 >= 0 ;
+1 x484 -1 x29 -1 x44 >= -1 ;
-1 x162 +1 x22 >= 0 ;
-1 x162 +1 x41 >= 0 ;
+1 x162 -1 x22 -1 x41 >= -1 ;
-1 x152 +1 x21 >= 0 ;
-1 x152 +1 x42 >= 0 ;
+1 x152 -1 x21 -1 x42 >= -1 ;
-1 x142 +1 x20 >= 0 ;
-1 x142 +1 x43 >= 0 ;
+1 x142 -1 x20 -1 x43 >= -1 ;
-1 x132 +1 x19 >= 0 ;
-1 x132 +1 x44 >= 0 ;
+1 x132 -1 x19 -1 x44 >= -1 ;
-1 x525 +1 x33 >= 0 ;
-1 x525 +1 x41 >= 0 ;
+1 x525 -1 x33 -1 x41 >= -1 ;
-1 x515 +1 x32 >= 0 ;
-1 x515 +1 x42 >= 0 ;
+1 x515 -1 x32 -1 x42 >= -1 ;
-1 x505 +1 x31 >= 0 ;
-1 x505 +1 x43 >= 0 ;
+1 x505 -1 x31 -1 x43 >= -1 ;
-1 x495 +1 x30 >= 0 ;
-1 x495 +1 x44 >= 0 ;
+1 x495 -1 x30 -1 x44 >= -1 ;
-1 x163 +1 x22 >= 0 ;
-1 x163 +1 x42 >= 0 ;
+1 x163 -1 x22 -1 x42 >= -1 ;
-1 x153 +1 x21 >= 0 ;
-1 x153 +1 x43 >= 0 ;
+1 x153 -1 x21 -1 x43 >= -1 ;
-1 x143 +1 x20 >= 0 ;
-1 x143 +1 x44 >= 0 ;
+1 x143 -1 x20 -1 x44 >= -1 ;
-1 x526 +1 x33 >= 0 ;
-1 x526 +1 x42 >= 0 ;
+1 x526 -1 x33 -1 x42 >= -1 ;
-1 x516 +1 x32 >= 0 ;
-1 x516 +1 x43 >= 0 ;
+1 x516 -1 x32 -1 x43 >= -1 ;
-1 x506 +1 x31 >= 0 ;
-1 x506 +1 x44 >= 0 ;
+1 x506 -1 x31 -1 x44 >= -1 ;
-1 x164 +1 x22 >= 0 ;
-1 x164 +1 x43 >= 0 ;
+1 x164 -1 x22 -1 x43 >= -1 ;
-1 x154 +1 x21 >= 0 ;
-1 x154 +1 x44 >= 0 ;
+1 x154 -1 x21 -1 x44 >= -1 ;
-1 x527 +1 x33 >= 0 ;
-1 x527 +1 x43 >= 0 ;
+1 x527 -1 x33 -1 x43 >= -1 ;
-1 x517 +1 x32 >= 0 ;
-1 x517 +1 x44 >= 0 ;
+1 x517 -1 x32 -1 x44 >= -1 ;
-1 x165 +1 x22 >= 0 ;
-1 x165 +1 x44 >= 0 ;
+1 x165 -1 x22 -1 x44 >= -1 ;
-1 x528 +1 x33 >= 0 ;
-1 x528 +1 x44 >= 0 ;
+1 x528 -1 x33 -1 x44 >= -1 ;
